n = 10; 

m=14; 



46	52	79	45	97	10	44	24	85	75
98	2	85	44	7	73	19	69	12	73
7	2	44	38	24	76	85	61	32	90
64	2	16	35	53	40	81	26	85	4
11	99	37	50	56	69	22	56	67	63
3	87	58	85	33	71	58	56	64	43
53	28	88	10	32	38	25	24	90	7
19	82	12	70	6	64	3	4	29	43
55	46	68	15	55	74	42	40	88	68
67	66	66	32	8	30	92	40	13	79
98	79	44	90	22	72	84	42	46	72
30	63	88	79	44	54	12	15	3	89
91	13	7	95	20	69	45	44	29	32
53	28	88	10	32	38	25	24	90	7 
 

 
 		

			
		
